20
3
20611
228 243 163
false
0.25
36 28 48 8 30 8 23 12 16 10 30 38 10 39 17 34 1 24 29 43
1 31 20 43 22 24 8 35 18 45 47 48 1 13 50 23 12 5 31 2
48 16 7 44 31 34 42 39 18 16 35 7 6 22 15 41 23 2 44 11
79 69 24 85 80 47 6 85 54 28 62 84 19 15 43 81 58 10 40 78
0 0 0 0 0 0 0 0 0 0 28 14 0 0 0 0 0 0 0 0
0 0 38 58 0 0 0 69 0 58 9 35 0 0 0 0 0 72 27
0 0 0 0 92 0 0 51 0 0 23 0 0 0 0 0 0 0
0 0 0 0 0 91 0 0 0 71 0 6 69 0 20 43 0
0 72 0 14 42 0 0 6 0 49 91 71 0 26 0 0
0 0 0 0 25 34 0 30 0 0 0 0 9 0 76
0 44 0 0 0 0 0 0 0 0 0 0 0 0
0 0 0 0 0 0 0 0 0 0 0 0 0
0 0 58 0 0 0 0 0 4 0 0 0
0 0 52 0 0 0 0 0 0 0 0
0 68 0 0 16 0 0 15 0 0
0 0 0 83 0 17 0 76 0
0 0 0 0 0 0 0 0
0 0 53 0 57 47 0
0 42 93 0 0 0
0 21 0 0 0
0 0 0 0
0 0 0
0 0
0 0 0 3 52 0 0 0 0 91 36 0 58 82 0 0 0 0 70
0 0 0 0 37 0 0 0 0 0 57 14 42 0 0 0 88 0
0 0 0 0 0 88 0 0 0 98 0 14 0 0 70 0 98
0 0 0 0 0 0 0 0 0 100 0 0 21 59 0 69
0 28 0 0 0 0 0 0 0 70 0 0 0 16 0
0 100 0 0 0 24 0 0 61 0 25 0 0 0
0 0 31 0 0 0 0 0 0 0 88 0 0
0 0 0 0 78 92 76 75 0 0 0 0
0 0 43 0 0 35 0 0 0 65 0
0 0 0 42 0 0 13 17 0 0
0 0 74 0 0 0 65 0 15
0 0 0 77 11 0 0 0
0 0 80 26 0 0 0
0 90 0 5 0 0
0 38 0 0 66
0 73 0 0
0 99 35
0 0
0
0 0 0 0 14 0 68 6 0 0 0 0 0 0 0 0 42 0
0 0 0 0 0 0 0 0 0 0 2 0 43 15 0 0 0
0 0 0 0 0 10 0 0 0 0 0 59 0 32 0 0
0 96 0 0 0 0 0 0 0 0 0 0 67 0 0
0 92 0 50 0 69 0 0 49 0 95 13 18 0
0 84 0 93 0 85 0 31 0 0 0 0 0
0 0 0 0 58 0 0 86 0 97 0 0
0 0 0 0 0 89 92 0 0 0 0
0 0 24 0 0 21 99 0 0 75
0 0 0 70 0 0 75 0 25
0 0 0 0 0 0 0 0
0 0 85 0 0 0 0
0 90 0 0 0 0
0 0 0 51 0
0 0 71 0
0 0 0
0 0
0
0 0 0 0 0 89 49 0 55 0 47 0 64 0 55 0 0
0 14 0 0 25 0 39 0 0 0 0 44 0 0 98 0
0 0 0 0 0 0 55 8 22 0 0 0 0 0 2
0 88 0 0 0 0 0 0 0 0 85 0 21 0
0 0 0 0 0 85 0 0 0 0 0 0 0
0 60 0 0 29 58 96 0 0 8 0 55
0 0 89 0 0 0 0 0 89 0 0
0 0 0 0 0 0 0 0 0 0
0 90 0 0 0 0 0 0 0
0 0 0 48 0 0 0 0
0 0 56 0 74 0 0
0 86 0 0 2 0
0 67 0 0 0
0 0 32 0
0 0 0
0 0
0
0 79 0 0 0 0 0 0 0 0 0 0 0 0 0 0
0 0 36 0 31 0 0 0 0 0 0 0 0 0 0
0 0 0 85 0 0 71 0 0 0 0 50 0 0
0 0 0 0 0 0 43 0 0 99 0 0 0
0 0 0 0 0 0 0 0 0 0 10 65
0 0 0 0 0 0 0 0 40 0 0
0 0 0 0 35 0 0 0 0 0
0 40 0 0 0 0 0 20 0
0 0 0 0 0 9 0 0
0 0 0 0 20 14 0
0 0 65 87 100 50
0 0 0 0 0
0 3 0 0
0 0 0
0 0
0
0 0 0 0 29 0 0 95 18 0 91 0 0 0 0
0 0 0 0 0 0 32 84 0 0 64 0 0 0
0 0 0 0 66 0 0 0 0 0 0 60 0
0 0 57 82 71 54 0 0 0 0 0 0
0 0 0 10 0 0 0 0 0 22 0
0 0 0 0 0 0 0 29 63 76
0 0 0 0 0 0 0 0 0
0 0 50 19 29 0 0 0
0 0 0 0 0 3 0
0 0 0 0 43 0
0 0 80 0 0
0 0 0 0
0 0 0
0 0
0
0 0 0 32 76 0 0 0 14 0 0 0 0 15
0 0 0 0 14 0 0 62 0 0 0 78 0
0 43 0 0 6 0 0 0 14 0 0 0
0 0 0 86 0 32 0 0 0 0 18
0 0 0 62 0 0 0 51 60 0
0 0 71 0 46 0 49 0 0
0 12 0 0 0 0 60 0
0 0 0 70 0 0 0
0 70 0 70 78 11
0 0 0 0 0
0 55 0 0
0 0 34
0 0
0
0 81 0 0 0 0 0 89 19 0 0 0 19
0 0 0 95 0 0 0 73 0 0 0 0
0 0 0 0 0 0 0 0 55 0 0
0 0 97 68 0 0 0 0 0 0
0 0 0 47 0 0 9 0 0
0 0 71 0 0 0 0 0
0 0 0 47 0 0 0
0 0 0 0 23 0
0 0 0 0 0
0 0 0 0
0 0 0
0 0
0
0 0 0 0 0 0 80 0 0 0 0 0
0 0 0 21 0 0 0 0 0 0 0
0 87 0 0 0 0 0 0 0 23
0 0 0 0 0 71 0 0 0
0 0 0 0 0 0 0 83
0 37 9 0 0 0 0
0 0 0 0 0 0
0 0 40 0 0
0 93 0 0
0 100 0
0 32
0
0 0 0 89 0 0 0 0 0 0 0
0 0 64 38 0 0 0 0 0 0
0 0 0 0 0 1 0 67 0
0 0 0 0 0 6 95 76
0 64 0 0 0 0 0
0 0 0 0 0 0
0 0 0 0 0
0 0 0 0
0 12 0
0 0
0
0 0 0 0 0 94 0 16 0 0
0 0 0 0 0 0 0 0 0
0 0 88 0 0 0 0 74
0 0 100 10 0 0 0
0 0 91 0 0 0
0 0 0 0 0
0 59 0 52
0 0 0
0 94
0
0 0 0 55 0 31 92 0 0
0 0 0 0 50 15 0 0
0 54 27 0 18 0 47
0 0 41 0 0 0
0 0 0 0 40
0 0 0 0
0 84 80
0 0
0
0 22 0 0 0 0 54 0
0 0 0 0 0 0 0
0 0 27 0 0 91
0 0 27 0 0
0 0 0 10
0 0 0
0 81
0
0 0 0 0 0 65 0
0 0 96 56 0 0
0 89 0 0 0
0 0 12 94
0 0 0
0 0
0
0 39 0 71 0 0
0 0 0 0 0
0 0 0 25
0 0 0
0 0
0
0 0 77 0 0
0 0 0 0
0 0 0
0 0
0
0 0 0 0
0 0 40
0 0
0
0 85 0
0 0
0
0 0
0
0
3101 3068 2442 2262 2388 2391 2423 2262 2783 2135 2483 2449 2833 2243 3326 2635 2247 2770 2296 1921
1083.9143518518517 133.42972350230414 173.9440476190476 128.92124735729385 88.39257086999021 156.27450980392157 155.30443409247758 103.70952380952382 161.05324074074073 131.46064814814815 68.84643701452211 155.10844820384293 1196.1555555555556 110.66860916860917 161.30013071895425 85.44450335807706 843.981884057971 684.8055555555555 68.47291603465129 393.2702607470049
